Route #1: 62
Route #2: 39 51 17
Route #3: 49 43 27 15 22 9
Route #4: 7 63 11 54 48 57 23 28
Route #5: 5 45 32 20 58 61 42 38 2
Route #6: 29 55 21 25 53 59 19
Route #7: 47 34 31 26 6 64 46
Route #8: 4 35 36 3 14
Route #9: 18 33 1 12 13 24 52 8
Route #10: 40 44 56 10
Route #11: 41 16 50 60 30 37
cost: 1330.656681027145
